s 1
v -1 -1684300902 1768515943 926365492 84215041 -757935410 -7 1852730984 -9 10 -673720369 -1515870820 -13 1094795574 252645123 -589505328 -1431655779 2021161066 1179010615 336860164 -505290287 -1347440738 23 1263225656 -25 26 -1263225697 -2105376148 1347440697 505290246 -336860205 -1179010656 -33 -34 589505287 -252645164 -37 38 1515870779 673720328 -168430123 -42 -1852731025 1600085820 45 -84215082 -926365533 -1768515984 1684300861 842150410 -41 -842150492 -1684300943 54 -55 84215000 -57 -1600085902 1852730943 -60 168430041 -673720410 -1515870861 1936945984 1094795533 252645082 -589505369 -1431655820 2021161025 -70 336860123 -72 -1347440779 2105376066 -75 421075164 -421075287 78 -2105376189 1347440656 505290205 -336860246 -1179010697 -2021161148 1431655697 589505246 -252645205 -1094795656 -89 1515870738 673720287 -168430164 -93 94 1600085779 757935328 -84215123 -926365574 -1768516025 1684300820 
t 18ms